c An instance of conditional planning (by rintanen@informatik.uni-freiburg.de)
p cnf 246  1281 
e 138 139 140 141 142 143 144 145 146 147 148 149 150 151 152 153 154 155 156 157 158 159 160 161 162 163 164 165 166 167 168 169 170 171 172 173 174 175 176 177 178 179 180 181 182 183 184 185 186 187 188 189 190 191 192 193 194 195 196 197 198 199 200 201 202 203 204 205 206 207 208 209 210 211 212 213 214 215 216 217 218 219 220 221 0
r 0.5 232 231 230 229 228 233 0
e 1 2 3 4 5 6 7 8 9 10 11 12 13 14 15 16 17 18 19 20 21 22 23 24 25 26 27 28 29 30 31 32 33 34 35 36 37 38 39 40 41 42 43 44 45 46 47 48 49 50 51 52 53 54 55 56 57 58 59 60 61 62 63 64 65 66 67 68 69 70 71 72 73 74 75 76 77 78 79 80 81 82 83 84 85 86 87 88 89 90 91 92 93 94 95 96 97 98 99 100 101 102 103 104 105 106 107 108 109 110 111 112 113 114 115 116 117 118 119 120 121 122 123 124 125 126 127 128 129 130 131 132 133 134 135 136 137 222 223 224 225 226 227 234 235 236 237 238 239 240 241 242 243 244 245 246 0
-229 -230 -231 -232 -233 228 234 0
-229 -230 -231 -232 -233 228 235 0
-229 -230 -231 -232 -233 228 236 0
-229 -230 -231 -232 -233 228 237 0
-229 -230 -231 -232 -233 228 238 0
-229 -230 -231 -232 -233 -239 228 0
-229 -230 -231 -232 -234 228 233 0
-229 -230 -231 -232 228 233 235 0
-229 -230 -231 -232 228 233 236 0
-229 -230 -231 -232 228 233 237 0
-229 -230 -231 -232 228 233 238 0
-229 -230 -231 -232 228 233 239 0
-228 -230 -231 -232 -233 -234 229 0
-228 -230 -231 -232 -233 229 235 0
-228 -230 -231 -232 -233 229 236 0
-228 -230 -231 -232 -233 229 237 0
-228 -230 -231 -232 -233 229 238 0
-228 -230 -231 -232 -233 -239 229 0
-228 -230 -231 -232 229 233 234 0
-228 -230 -231 -232 -235 229 233 0
-228 -230 -231 -232 229 233 236 0
-228 -230 -231 -232 229 233 237 0
-228 -230 -231 -232 229 233 238 0
-228 -230 -231 -232 229 233 239 0
-230 -231 -232 -233 228 229 234 0
-230 -231 -232 -233 -235 228 229 0
-230 -231 -232 -233 228 229 236 0
-230 -231 -232 -233 228 229 237 0
-230 -231 -232 -233 228 229 238 0
-230 -231 -232 -233 -239 228 229 0
-230 -231 -232 -234 228 229 233 0
-230 -231 -232 -235 228 229 233 0
-230 -231 -232 228 229 233 236 0
-230 -231 -232 228 229 233 237 0
-230 -231 -232 228 229 233 238 0
-230 -231 -232 228 229 233 239 0
-228 -229 -231 -232 -233 -234 230 0
-228 -229 -231 -232 -233 -235 230 0
-228 -229 -231 -232 -233 230 236 0
-228 -229 -231 -232 -233 230 237 0
-228 -229 -231 -232 -233 230 238 0
-228 -229 -231 -232 -233 -239 230 0
-228 -229 -231 -232 230 233 234 0
-228 -229 -231 -232 230 233 235 0
-228 -229 -231 -232 -236 230 233 0
-228 -229 -231 -232 230 233 237 0
-228 -229 -231 -232 230 233 238 0
-228 -229 -231 -232 230 233 239 0
-229 -231 -232 -233 228 230 234 0
-229 -231 -232 -233 228 230 235 0
-229 -231 -232 -233 -236 228 230 0
-229 -231 -232 -233 228 230 237 0
-229 -231 -232 -233 228 230 238 0
-229 -231 -232 -233 -239 228 230 0
-229 -231 -232 -234 228 230 233 0
-229 -231 -232 228 230 233 235 0
-229 -231 -232 -236 228 230 233 0
-229 -231 -232 228 230 233 237 0
-229 -231 -232 228 230 233 238 0
-229 -231 -232 228 230 233 239 0
-228 -231 -232 -233 -234 229 230 0
-228 -231 -232 -233 229 230 235 0
-228 -231 -232 -233 -236 229 230 0
-228 -231 -232 -233 229 230 237 0
-228 -231 -232 -233 229 230 238 0
-228 -231 -232 -233 -239 229 230 0
-228 -231 -232 229 230 233 234 0
-228 -231 -232 -235 229 230 233 0
-228 -231 -232 -236 229 230 233 0
-228 -231 -232 229 230 233 237 0
-228 -231 -232 229 230 233 238 0
-228 -231 -232 229 230 233 239 0
-231 -232 -233 228 229 230 234 0
-231 -232 -233 -235 228 229 230 0
-231 -232 -233 -236 228 229 230 0
-231 -232 -233 228 229 230 237 0
-231 -232 -233 228 229 230 238 0
-231 -232 -233 -239 228 229 230 0
-231 -232 -234 228 229 230 233 0
-231 -232 -235 228 229 230 233 0
-231 -232 -236 228 229 230 233 0
-231 -232 228 229 230 233 237 0
-231 -232 228 229 230 233 238 0
-231 -232 228 229 230 233 239 0
-228 -229 -230 -232 -233 -234 231 0
-228 -229 -230 -232 -233 -235 231 0
-228 -229 -230 -232 -233 -236 231 0
-228 -229 -230 -232 -233 231 237 0
-228 -229 -230 -232 -233 231 238 0
-228 -229 -230 -232 -233 -239 231 0
-228 -229 -230 -232 231 233 234 0
-228 -229 -230 -232 231 233 235 0
-228 -229 -230 -232 231 233 236 0
-228 -229 -230 -232 -237 231 233 0
-228 -229 -230 -232 231 233 238 0
-228 -229 -230 -232 231 233 239 0
-229 -230 -232 -233 228 231 234 0
-229 -230 -232 -233 228 231 235 0
-229 -230 -232 -233 228 231 236 0
-229 -230 -232 -233 -237 228 231 0
-229 -230 -232 -233 228 231 238 0
-229 -230 -232 -233 -239 228 231 0
-229 -230 -232 -234 228 231 233 0
-229 -230 -232 228 231 233 235 0
-229 -230 -232 228 231 233 236 0
-229 -230 -232 -237 228 231 233 0
-229 -230 -232 228 231 233 238 0
-229 -230 -232 228 231 233 239 0
-228 -230 -232 -233 -234 229 231 0
-228 -230 -232 -233 229 231 235 0
-228 -230 -232 -233 229 231 236 0
-228 -230 -232 -233 -237 229 231 0
-228 -230 -232 -233 229 231 238 0
-228 -230 -232 -233 -239 229 231 0
-228 -230 -232 229 231 233 234 0
-228 -230 -232 -235 229 231 233 0
-228 -230 -232 229 231 233 236 0
-228 -230 -232 -237 229 231 233 0
-228 -230 -232 229 231 233 238 0
-228 -230 -232 229 231 233 239 0
-230 -232 -233 228 229 231 234 0
-230 -232 -233 -235 228 229 231 0
-230 -232 -233 228 229 231 236 0
-230 -232 -233 -237 228 229 231 0
-230 -232 -233 228 229 231 238 0
-230 -232 -233 -239 228 229 231 0
-230 -232 -234 228 229 231 233 0
-230 -232 -235 228 229 231 233 0
-230 -232 228 229 231 233 236 0
-230 -232 -237 228 229 231 233 0
-230 -232 228 229 231 233 238 0
-230 -232 228 229 231 233 239 0
-228 -229 -232 -233 -234 230 231 0
-228 -229 -232 -233 -235 230 231 0
-228 -229 -232 -233 230 231 236 0
-228 -229 -232 -233 -237 230 231 0
-228 -229 -232 -233 230 231 238 0
-228 -229 -232 -233 -239 230 231 0
-228 -229 -232 230 231 233 234 0
-228 -229 -232 230 231 233 235 0
-228 -229 -232 -236 230 231 233 0
-228 -229 -232 -237 230 231 233 0
-228 -229 -232 230 231 233 238 0
-228 -229 -232 230 231 233 239 0
-229 -232 -233 228 230 231 234 0
-229 -232 -233 228 230 231 235 0
-229 -232 -233 -236 228 230 231 0
-229 -232 -233 -237 228 230 231 0
-229 -232 -233 228 230 231 238 0
-229 -232 -233 -239 228 230 231 0
-229 -232 -234 228 230 231 233 0
-229 -232 228 230 231 233 235 0
-229 -232 -236 228 230 231 233 0
-229 -232 -237 228 230 231 233 0
-229 -232 228 230 231 233 238 0
-229 -232 228 230 231 233 239 0
-228 -232 -233 -234 229 230 231 0
-228 -232 -233 229 230 231 235 0
-228 -232 -233 -236 229 230 231 0
-228 -232 -233 -237 229 230 231 0
-228 -232 -233 229 230 231 238 0
-228 -232 -233 -239 229 230 231 0
-228 -232 229 230 231 233 234 0
-228 -232 -235 229 230 231 233 0
-228 -232 -236 229 230 231 233 0
-228 -232 -237 229 230 231 233 0
-228 -232 229 230 231 233 238 0
-228 -232 229 230 231 233 239 0
-232 -233 228 229 230 231 234 0
-232 -233 -235 228 229 230 231 0
-232 -233 -236 228 229 230 231 0
-232 -233 -237 228 229 230 231 0
-232 -233 228 229 230 231 238 0
-232 -233 -239 228 229 230 231 0
-232 -234 228 229 230 231 233 0
-232 -235 228 229 230 231 233 0
-232 -236 228 229 230 231 233 0
-232 -237 228 229 230 231 233 0
-232 228 229 230 231 233 238 0
-232 228 229 230 231 233 239 0
-228 -229 -230 -231 -233 -234 232 0
-228 -229 -230 -231 -233 -235 232 0
-228 -229 -230 -231 -233 -236 232 0
-228 -229 -230 -231 -233 -237 232 0
-228 -229 -230 -231 -233 232 238 0
-228 -229 -230 -231 -233 -239 232 0
-228 -229 -230 -231 232 233 234 0
-228 -229 -230 -231 232 233 235 0
-228 -229 -230 -231 232 233 236 0
-228 -229 -230 -231 232 233 237 0
-228 -229 -230 -231 -238 232 233 0
-228 -229 -230 -231 232 233 239 0
-229 -230 -231 -233 228 232 234 0
-229 -230 -231 -233 228 232 235 0
-229 -230 -231 -233 228 232 236 0
-229 -230 -231 -233 228 232 237 0
-229 -230 -231 -233 -238 228 232 0
-229 -230 -231 -233 -239 228 232 0
-229 -230 -231 -234 228 232 233 0
-229 -230 -231 228 232 233 235 0
-229 -230 -231 228 232 233 236 0
-229 -230 -231 228 232 233 237 0
-229 -230 -231 -238 228 232 233 0
-229 -230 -231 228 232 233 239 0
-228 -230 -231 -233 -234 229 232 0
-228 -230 -231 -233 229 232 235 0
-228 -230 -231 -233 229 232 236 0
-228 -230 -231 -233 229 232 237 0
-228 -230 -231 -233 -238 229 232 0
-228 -230 -231 -233 -239 229 232 0
-228 -230 -231 229 232 233 234 0
-228 -230 -231 -235 229 232 233 0
-228 -230 -231 229 232 233 236 0
-228 -230 -231 229 232 233 237 0
-228 -230 -231 -238 229 232 233 0
-228 -230 -231 229 232 233 239 0
-230 -231 -233 228 229 232 234 0
-230 -231 -233 -235 228 229 232 0
-230 -231 -233 228 229 232 236 0
-230 -231 -233 228 229 232 237 0
-230 -231 -233 -238 228 229 232 0
-230 -231 -233 -239 228 229 232 0
-230 -231 -234 228 229 232 233 0
-230 -231 -235 228 229 232 233 0
-230 -231 228 229 232 233 236 0
-230 -231 228 229 232 233 237 0
-230 -231 -238 228 229 232 233 0
-230 -231 228 229 232 233 239 0
-228 -229 -231 -233 -234 230 232 0
-228 -229 -231 -233 -235 230 232 0
-228 -229 -231 -233 230 232 236 0
-228 -229 -231 -233 230 232 237 0
-228 -229 -231 -233 -238 230 232 0
-228 -229 -231 -233 -239 230 232 0
-228 -229 -231 230 232 233 234 0
-228 -229 -231 230 232 233 235 0
-228 -229 -231 -236 230 232 233 0
-228 -229 -231 230 232 233 237 0
-228 -229 -231 -238 230 232 233 0
-228 -229 -231 230 232 233 239 0
-229 -231 -233 228 230 232 234 0
-229 -231 -233 228 230 232 235 0
-229 -231 -233 -236 228 230 232 0
-229 -231 -233 228 230 232 237 0
-229 -231 -233 -238 228 230 232 0
-229 -231 -233 -239 228 230 232 0
-229 -231 -234 228 230 232 233 0
-229 -231 228 230 232 233 235 0
-229 -231 -236 228 230 232 233 0
-229 -231 228 230 232 233 237 0
-229 -231 -238 228 230 232 233 0
-229 -231 228 230 232 233 239 0
-228 -231 -233 -234 229 230 232 0
-228 -231 -233 229 230 232 235 0
-228 -231 -233 -236 229 230 232 0
-228 -231 -233 229 230 232 237 0
-228 -231 -233 -238 229 230 232 0
-228 -231 -233 -239 229 230 232 0
-228 -231 229 230 232 233 234 0
-228 -231 -235 229 230 232 233 0
-228 -231 -236 229 230 232 233 0
-228 -231 229 230 232 233 237 0
-228 -231 -238 229 230 232 233 0
-228 -231 229 230 232 233 239 0
-231 -233 228 229 230 232 234 0
-231 -233 -235 228 229 230 232 0
-231 -233 -236 228 229 230 232 0
-231 -233 228 229 230 232 237 0
-231 -233 -238 228 229 230 232 0
-231 -233 -239 228 229 230 232 0
-231 -234 228 229 230 232 233 0
-231 -235 228 229 230 232 233 0
-231 -236 228 229 230 232 233 0
-231 228 229 230 232 233 237 0
-231 -238 228 229 230 232 233 0
-231 228 229 230 232 233 239 0
-228 -229 -230 -233 -234 231 232 0
-228 -229 -230 -233 -235 231 232 0
-228 -229 -230 -233 -236 231 232 0
-228 -229 -230 -233 231 232 237 0
-228 -229 -230 -233 -238 231 232 0
-228 -229 -230 -233 -239 231 232 0
-228 -229 -230 231 232 233 234 0
-228 -229 -230 231 232 233 235 0
-228 -229 -230 231 232 233 236 0
-228 -229 -230 -237 231 232 233 0
-228 -229 -230 -238 231 232 233 0
-228 -229 -230 231 232 233 239 0
-229 -230 -233 228 231 232 234 0
-229 -230 -233 228 231 232 235 0
-229 -230 -233 228 231 232 236 0
-229 -230 -233 -237 228 231 232 0
-229 -230 -233 -238 228 231 232 0
-229 -230 -233 -239 228 231 232 0
-229 -230 -234 228 231 232 233 0
-229 -230 228 231 232 233 235 0
-229 -230 228 231 232 233 236 0
-229 -230 -237 228 231 232 233 0
-229 -230 -238 228 231 232 233 0
-229 -230 228 231 232 233 239 0
-228 -230 -233 -234 229 231 232 0
-228 -230 -233 229 231 232 235 0
-228 -230 -233 229 231 232 236 0
-228 -230 -233 -237 229 231 232 0
-228 -230 -233 -238 229 231 232 0
-228 -230 -233 -239 229 231 232 0
-228 -230 229 231 232 233 234 0
-228 -230 -235 229 231 232 233 0
-228 -230 229 231 232 233 236 0
-228 -230 -237 229 231 232 233 0
-228 -230 -238 229 231 232 233 0
-228 -230 229 231 232 233 239 0
-230 -233 228 229 231 232 234 0
-230 -233 -235 228 229 231 232 0
-230 -233 228 229 231 232 236 0
-230 -233 -237 228 229 231 232 0
-230 -233 -238 228 229 231 232 0
-230 -233 -239 228 229 231 232 0
-230 -234 228 229 231 232 233 0
-230 -235 228 229 231 232 233 0
-230 228 229 231 232 233 236 0
-230 -237 228 229 231 232 233 0
-230 -238 228 229 231 232 233 0
-230 228 229 231 232 233 239 0
-228 -229 -233 -234 230 231 232 0
-228 -229 -233 -235 230 231 232 0
-228 -229 -233 230 231 232 236 0
-228 -229 -233 -237 230 231 232 0
-228 -229 -233 -238 230 231 232 0
-228 -229 -233 -239 230 231 232 0
-228 -229 230 231 232 233 234 0
-228 -229 230 231 232 233 235 0
-228 -229 -236 230 231 232 233 0
-228 -229 -237 230 231 232 233 0
-228 -229 -238 230 231 232 233 0
-228 -229 230 231 232 233 239 0
-229 -233 228 230 231 232 234 0
-229 -233 228 230 231 232 235 0
-229 -233 -236 228 230 231 232 0
-229 -233 -237 228 230 231 232 0
-229 -233 -238 228 230 231 232 0
-229 -233 -239 228 230 231 232 0
-229 -234 228 230 231 232 233 0
-229 228 230 231 232 233 235 0
-229 -236 228 230 231 232 233 0
-229 -237 228 230 231 232 233 0
-229 -238 228 230 231 232 233 0
-229 228 230 231 232 233 239 0
-228 -233 -234 229 230 231 232 0
-228 -233 229 230 231 232 235 0
-228 -233 -236 229 230 231 232 0
-228 -233 -237 229 230 231 232 0
-228 -233 -238 229 230 231 232 0
-228 -233 -239 229 230 231 232 0
-228 229 230 231 232 233 234 0
-228 -235 229 230 231 232 233 0
-228 -236 229 230 231 232 233 0
-228 -237 229 230 231 232 233 0
-228 -238 229 230 231 232 233 0
-228 229 230 231 232 233 239 0
-233 228 229 230 231 232 234 0
-233 -235 228 229 230 231 232 0
-233 -236 228 229 230 231 232 0
-233 -237 228 229 230 231 232 0
-233 -238 228 229 230 231 232 0
-233 -239 228 229 230 231 232 0
-234 228 229 230 231 232 233 0
-235 228 229 230 231 232 233 0
-236 228 229 230 231 232 233 0
-237 228 229 230 231 232 233 0
-238 228 229 230 231 232 233 0
228 229 230 231 232 233 239 0
-228 -229 -230 -231 -232 233 234 0
-228 -229 -230 -231 -232 233 235 0
-228 -229 -230 -231 -232 233 236 0
-228 -229 -230 -231 -232 233 237 0
-228 -229 -230 -231 -232 233 238 0
-228 -229 -230 -231 -232 233 239 0
-240 0
-241 0
-242 0
-243 0
-244 0
-245 0
-246 0
-138 -246 0
-138 -240 0
-12 -139 0
-1 -139 0
-13 -140 0
-2 -140 0
-14 -141 0
-3 -141 0
-15 -142 0
-4 -142 0
-16 -143 0
-5 -143 0
-17 -144 0
-6 -144 0
-18 -145 0
-7 -145 0
-19 -146 0
-8 -146 0
-20 -147 0
-9 -147 0
-21 -148 0
-10 -148 0
-150 -241 0
-150 -246 0
-33 -151 0
-12 -151 0
-34 -152 0
-13 -152 0
-35 -153 0
-14 -153 0
-36 -154 0
-15 -154 0
-37 -155 0
-16 -155 0
-38 -156 0
-17 -156 0
-39 -157 0
-18 -157 0
-40 -158 0
-19 -158 0
-41 -159 0
-20 -159 0
-42 -160 0
-21 -160 0
-162 -242 0
-162 -246 0
-54 -163 0
-12 -163 0
-55 -164 0
-13 -164 0
-56 -165 0
-14 -165 0
-57 -166 0
-15 -166 0
-58 -167 0
-16 -167 0
-59 -168 0
-17 -168 0
-60 -169 0
-18 -169 0
-61 -170 0
-19 -170 0
-62 -171 0
-20 -171 0
-63 -172 0
-21 -172 0
-174 -243 0
-174 -246 0
-75 -175 0
-12 -175 0
-76 -176 0
-13 -176 0
-77 -177 0
-14 -177 0
-78 -178 0
-15 -178 0
-79 -179 0
-16 -179 0
-80 -180 0
-17 -180 0
-81 -181 0
-18 -181 0
-82 -182 0
-19 -182 0
-83 -183 0
-20 -183 0
-84 -184 0
-21 -184 0
-186 -244 0
-186 -246 0
-96 -187 0
-12 -187 0
-97 -188 0
-13 -188 0
-98 -189 0
-14 -189 0
-99 -190 0
-15 -190 0
-100 -191 0
-16 -191 0
-101 -192 0
-17 -192 0
-102 -193 0
-18 -193 0
-103 -194 0
-19 -194 0
-104 -195 0
-20 -195 0
-105 -196 0
-21 -196 0
-198 -245 0
-198 -246 0
-117 -200 0
-12 -200 0
-118 -202 0
-13 -202 0
-119 -204 0
-14 -204 0
-120 -206 0
-15 -206 0
-121 -208 0
-16 -208 0
-122 -210 0
-17 -210 0
-123 -212 0
-18 -212 0
-124 -214 0
-19 -214 0
-125 -216 0
-20 -216 0
-126 -218 0
-21 -218 0
-199 246 0
-201 12 0
-203 13 0
-205 14 0
-207 15 0
-209 16 0
-211 17 0
-213 18 0
-215 19 0
-217 20 0
-219 21 0
-138 12 0
-23 -138 0
-138 1 0
-139 13 0
-24 -139 0
-139 2 0
-140 14 0
-25 -140 0
-140 3 0
-141 15 0
-26 -141 0
-141 4 0
-142 16 0
-27 -142 0
-142 5 0
-143 17 0
-28 -143 0
-143 6 0
-144 18 0
-29 -144 0
-144 7 0
-145 19 0
-30 -145 0
-145 8 0
-146 20 0
-31 -146 0
-146 9 0
-147 21 0
-32 -147 0
-147 10 0
-148 22 0
-148 -222 0
-148 11 0
-150 33 0
-44 -150 0
-150 12 0
-151 34 0
-45 -151 0
-151 13 0
-152 35 0
-46 -152 0
-152 14 0
-153 36 0
-47 -153 0
-153 15 0
-154 37 0
-48 -154 0
-154 16 0
-155 38 0
-49 -155 0
-155 17 0
-156 39 0
-50 -156 0
-156 18 0
-157 40 0
-51 -157 0
-157 19 0
-158 41 0
-52 -158 0
-158 20 0
-159 42 0
-53 -159 0
-159 21 0
-160 43 0
-160 -223 0
-160 22 0
-162 54 0
-65 -162 0
-162 12 0
-163 55 0
-66 -163 0
-163 13 0
-164 56 0
-67 -164 0
-164 14 0
-165 57 0
-68 -165 0
-165 15 0
-166 58 0
-69 -166 0
-166 16 0
-167 59 0
-70 -167 0
-167 17 0
-168 60 0
-71 -168 0
-168 18 0
-169 61 0
-72 -169 0
-169 19 0
-170 62 0
-73 -170 0
-170 20 0
-171 63 0
-74 -171 0
-171 21 0
-172 64 0
-172 -224 0
-172 22 0
-174 75 0
-86 -174 0
-174 12 0
-175 76 0
-87 -175 0
-175 13 0
-176 77 0
-88 -176 0
-176 14 0
-177 78 0
-89 -177 0
-177 15 0
-178 79 0
-90 -178 0
-178 16 0
-179 80 0
-91 -179 0
-179 17 0
-180 81 0
-92 -180 0
-180 18 0
-181 82 0
-93 -181 0
-181 19 0
-182 83 0
-94 -182 0
-182 20 0
-183 84 0
-95 -183 0
-183 21 0
-184 85 0
-184 -225 0
-184 22 0
-186 96 0
-107 -186 0
-186 12 0
-187 97 0
-108 -187 0
-187 13 0
-188 98 0
-109 -188 0
-188 14 0
-189 99 0
-110 -189 0
-189 15 0
-190 100 0
-111 -190 0
-190 16 0
-191 101 0
-112 -191 0
-191 17 0
-192 102 0
-113 -192 0
-192 18 0
-193 103 0
-114 -193 0
-193 19 0
-194 104 0
-115 -194 0
-194 20 0
-195 105 0
-116 -195 0
-195 21 0
-196 106 0
-196 -226 0
-196 22 0
-198 117 0
-128 -198 0
-198 12 0
-200 118 0
-129 -200 0
-200 13 0
-202 119 0
-130 -202 0
-202 14 0
-204 120 0
-131 -204 0
-204 15 0
-206 121 0
-132 -206 0
-206 16 0
-208 122 0
-133 -208 0
-208 17 0
-210 123 0
-134 -210 0
-210 18 0
-212 124 0
-135 -212 0
-212 19 0
-214 125 0
-136 -214 0
-214 20 0
-216 126 0
-137 -216 0
-216 21 0
-218 127 0
-218 -227 0
-218 22 0
-12 -199 0
-13 -201 0
-14 -203 0
-15 -205 0
-16 -207 0
-17 -209 0
-18 -211 0
-19 -213 0
-20 -215 0
-21 -217 0
-22 -219 0
-1 138 240 0
-2 1 139 0
-3 2 140 0
-4 3 141 0
-5 4 142 0
-6 5 143 0
-7 6 144 0
-8 7 145 0
-9 8 146 0
-10 9 147 0
-11 10 148 0
-240 1 0
-1 2 0
-2 3 0
-3 4 0
-4 5 0
-5 6 0
-6 7 0
-7 8 0
-8 9 0
-9 10 0
-10 11 0
-12 138 150 162 174 186 198 246 0
-13 12 139 151 163 175 187 200 0
-14 13 140 152 164 176 188 202 0
-15 14 141 153 165 177 189 204 0
-16 15 142 154 166 178 190 206 0
-17 16 143 155 167 179 191 208 0
-18 17 144 156 168 180 192 210 0
-19 18 145 157 169 181 193 212 0
-20 19 146 158 170 182 194 214 0
-21 20 147 159 171 183 195 216 0
-22 21 148 160 172 184 196 218 0
-246 12 199 0
-12 13 201 0
-13 14 203 0
-14 15 205 0
-15 16 207 0
-16 17 209 0
-17 18 211 0
-18 19 213 0
-19 20 215 0
-20 21 217 0
-21 22 219 0
-23 239 0
-24 23 0
-25 24 0
-26 25 0
-27 26 0
-28 27 0
-29 28 0
-30 29 0
-31 30 0
-32 31 0
-222 32 0
-239 23 138 0
-23 24 139 0
-24 25 140 0
-25 26 141 0
-26 27 142 0
-27 28 143 0
-28 29 144 0
-29 30 145 0
-30 31 146 0
-31 32 147 0
-32 148 222 0
-33 150 241 0
-34 33 151 0
-35 34 152 0
-36 35 153 0
-37 36 154 0
-38 37 155 0
-39 38 156 0
-40 39 157 0
-41 40 158 0
-42 41 159 0
-43 42 160 0
-241 33 0
-33 34 0
-34 35 0
-35 36 0
-36 37 0
-37 38 0
-38 39 0
-39 40 0
-40 41 0
-41 42 0
-42 43 0
-44 234 0
-45 44 0
-46 45 0
-47 46 0
-48 47 0
-49 48 0
-50 49 0
-51 50 0
-52 51 0
-53 52 0
-223 53 0
-234 44 150 0
-44 45 151 0
-45 46 152 0
-46 47 153 0
-47 48 154 0
-48 49 155 0
-49 50 156 0
-50 51 157 0
-51 52 158 0
-52 53 159 0
-53 160 223 0
-54 162 242 0
-55 54 163 0
-56 55 164 0
-57 56 165 0
-58 57 166 0
-59 58 167 0
-60 59 168 0
-61 60 169 0
-62 61 170 0
-63 62 171 0
-64 63 172 0
-242 54 0
-54 55 0
-55 56 0
-56 57 0
-57 58 0
-58 59 0
-59 60 0
-60 61 0
-61 62 0
-62 63 0
-63 64 0
-65 235 0
-66 65 0
-67 66 0
-68 67 0
-69 68 0
-70 69 0
-71 70 0
-72 71 0
-73 72 0
-74 73 0
-224 74 0
-235 65 162 0
-65 66 163 0
-66 67 164 0
-67 68 165 0
-68 69 166 0
-69 70 167 0
-70 71 168 0
-71 72 169 0
-72 73 170 0
-73 74 171 0
-74 172 224 0
-75 174 243 0
-76 75 175 0
-77 76 176 0
-78 77 177 0
-79 78 178 0
-80 79 179 0
-81 80 180 0
-82 81 181 0
-83 82 182 0
-84 83 183 0
-85 84 184 0
-243 75 0
-75 76 0
-76 77 0
-77 78 0
-78 79 0
-79 80 0
-80 81 0
-81 82 0
-82 83 0
-83 84 0
-84 85 0
-86 236 0
-87 86 0
-88 87 0
-89 88 0
-90 89 0
-91 90 0
-92 91 0
-93 92 0
-94 93 0
-95 94 0
-225 95 0
-236 86 174 0
-86 87 175 0
-87 88 176 0
-88 89 177 0
-89 90 178 0
-90 91 179 0
-91 92 180 0
-92 93 181 0
-93 94 182 0
-94 95 183 0
-95 184 225 0
-96 186 244 0
-97 96 187 0
-98 97 188 0
-99 98 189 0
-100 99 190 0
-101 100 191 0
-102 101 192 0
-103 102 193 0
-104 103 194 0
-105 104 195 0
-106 105 196 0
-244 96 0
-96 97 0
-97 98 0
-98 99 0
-99 100 0
-100 101 0
-101 102 0
-102 103 0
-103 104 0
-104 105 0
-105 106 0
-107 237 0
-108 107 0
-109 108 0
-110 109 0
-111 110 0
-112 111 0
-113 112 0
-114 113 0
-115 114 0
-116 115 0
-226 116 0
-237 107 186 0
-107 108 187 0
-108 109 188 0
-109 110 189 0
-110 111 190 0
-111 112 191 0
-112 113 192 0
-113 114 193 0
-114 115 194 0
-115 116 195 0
-116 196 226 0
-117 198 245 0
-118 117 200 0
-119 118 202 0
-120 119 204 0
-121 120 206 0
-122 121 208 0
-123 122 210 0
-124 123 212 0
-125 124 214 0
-126 125 216 0
-127 126 218 0
-245 117 0
-117 118 0
-118 119 0
-119 120 0
-120 121 0
-121 122 0
-122 123 0
-123 124 0
-124 125 0
-125 126 0
-126 127 0
-128 238 0
-129 128 0
-130 129 0
-131 130 0
-132 131 0
-133 132 0
-134 133 0
-135 134 0
-136 135 0
-137 136 0
-227 137 0
-238 128 198 0
-128 129 200 0
-129 130 202 0
-130 131 204 0
-131 132 206 0
-132 133 208 0
-133 134 210 0
-134 135 212 0
-135 136 214 0
-136 137 216 0
-137 218 227 0
-138 -150 0
-139 -151 0
-140 -152 0
-141 -153 0
-142 -154 0
-143 -155 0
-144 -156 0
-145 -157 0
-146 -158 0
-147 -159 0
-148 -160 0
-149 -161 0
-138 -162 0
-139 -163 0
-140 -164 0
-141 -165 0
-142 -166 0
-143 -167 0
-144 -168 0
-145 -169 0
-146 -170 0
-147 -171 0
-148 -172 0
-149 -173 0
-138 -174 0
-139 -175 0
-140 -176 0
-141 -177 0
-142 -178 0
-143 -179 0
-144 -180 0
-145 -181 0
-146 -182 0
-147 -183 0
-148 -184 0
-149 -185 0
-138 -186 0
-139 -187 0
-140 -188 0
-141 -189 0
-142 -190 0
-143 -191 0
-144 -192 0
-145 -193 0
-146 -194 0
-147 -195 0
-148 -196 0
-149 -197 0
-138 -198 0
-139 -200 0
-140 -202 0
-141 -204 0
-142 -206 0
-143 -208 0
-144 -210 0
-145 -212 0
-146 -214 0
-147 -216 0
-148 -218 0
-149 -220 0
-138 -199 0
-139 -201 0
-140 -203 0
-141 -205 0
-142 -207 0
-143 -209 0
-144 -211 0
-145 -213 0
-146 -215 0
-147 -217 0
-148 -219 0
-149 -221 0
-150 -162 0
-151 -163 0
-152 -164 0
-153 -165 0
-154 -166 0
-155 -167 0
-156 -168 0
-157 -169 0
-158 -170 0
-159 -171 0
-160 -172 0
-161 -173 0
-150 -174 0
-151 -175 0
-152 -176 0
-153 -177 0
-154 -178 0
-155 -179 0
-156 -180 0
-157 -181 0
-158 -182 0
-159 -183 0
-160 -184 0
-161 -185 0
-150 -186 0
-151 -187 0
-152 -188 0
-153 -189 0
-154 -190 0
-155 -191 0
-156 -192 0
-157 -193 0
-158 -194 0
-159 -195 0
-160 -196 0
-161 -197 0
-150 -198 0
-151 -200 0
-152 -202 0
-153 -204 0
-154 -206 0
-155 -208 0
-156 -210 0
-157 -212 0
-158 -214 0
-159 -216 0
-160 -218 0
-161 -220 0
-150 -199 0
-151 -201 0
-152 -203 0
-153 -205 0
-154 -207 0
-155 -209 0
-156 -211 0
-157 -213 0
-158 -215 0
-159 -217 0
-160 -219 0
-161 -221 0
-162 -174 0
-163 -175 0
-164 -176 0
-165 -177 0
-166 -178 0
-167 -179 0
-168 -180 0
-169 -181 0
-170 -182 0
-171 -183 0
-172 -184 0
-173 -185 0
-162 -186 0
-163 -187 0
-164 -188 0
-165 -189 0
-166 -190 0
-167 -191 0
-168 -192 0
-169 -193 0
-170 -194 0
-171 -195 0
-172 -196 0
-173 -197 0
-162 -198 0
-163 -200 0
-164 -202 0
-165 -204 0
-166 -206 0
-167 -208 0
-168 -210 0
-169 -212 0
-170 -214 0
-171 -216 0
-172 -218 0
-173 -220 0
-162 -199 0
-163 -201 0
-164 -203 0
-165 -205 0
-166 -207 0
-167 -209 0
-168 -211 0
-169 -213 0
-170 -215 0
-171 -217 0
-172 -219 0
-173 -221 0
-174 -186 0
-175 -187 0
-176 -188 0
-177 -189 0
-178 -190 0
-179 -191 0
-180 -192 0
-181 -193 0
-182 -194 0
-183 -195 0
-184 -196 0
-185 -197 0
-174 -198 0
-175 -200 0
-176 -202 0
-177 -204 0
-178 -206 0
-179 -208 0
-180 -210 0
-181 -212 0
-182 -214 0
-183 -216 0
-184 -218 0
-185 -220 0
-174 -199 0
-175 -201 0
-176 -203 0
-177 -205 0
-178 -207 0
-179 -209 0
-180 -211 0
-181 -213 0
-182 -215 0
-183 -217 0
-184 -219 0
-185 -221 0
-186 -198 0
-187 -200 0
-188 -202 0
-189 -204 0
-190 -206 0
-191 -208 0
-192 -210 0
-193 -212 0
-194 -214 0
-195 -216 0
-196 -218 0
-197 -220 0
-186 -199 0
-187 -201 0
-188 -203 0
-189 -205 0
-190 -207 0
-191 -209 0
-192 -211 0
-193 -213 0
-194 -215 0
-195 -217 0
-196 -219 0
-197 -221 0
-198 -199 0
-200 -201 0
-202 -203 0
-204 -205 0
-206 -207 0
-208 -209 0
-210 -211 0
-212 -213 0
-214 -215 0
-216 -217 0
-218 -219 0
-220 -221 0
-222 0
-223 0
-224 0
-225 0
-226 0
-227 0
